15
14
10 8 7 6 12 4 2 11 3 9 13 0 1
11 9 1
5 12 2 6 14 3
2 5 4 8 9 13 14 0 3 7 10 11 6 12 1
13 12 3 9 4 5 10 1 11 2 7 8
9 4 2
5 9 8 1 0 4 13 12 11 3
10 2
9 0 5
11 0 5 7 10 6
12 8 0 10 3 5 6 14 9 1
3 13 6 7 11 8 0 5 14 1 4 2 9 12
1 12 2 5 13 14 10 11 8 6
8 9
